SAT
83 -14 -76 60 85 -145 136 -40 -4 -57 -116 -68 43 17 -133 -93 141 -37 8 59 -150 98 69 47 -16 144 -104 121 -45 -97 -92 -127 -114 -131 146 42 65 -140 80 -86 63 -46 147 -128 102 -53 -99 -28 -23 -142 123 -105 -115 -50 113 5 -135 81 19 -88 33 -106 137 -126 -90 -100 120 -20 139 -55 26 149 24 125 101 -51 -111 110 -124 -13 -30 -62 71 74 -10 87 2 48 -38 -15 -1 -138 29 -95 -52 75 -7 -89 -134 -12 -44 84 41 -54 107 18 77 -109 94 117 -70 22 91 72 -122 -56 -64 130 -34 108 -25 -66 -3 -132 -58 -103 61 -6 78 -82 -143 -112 -11 21 39 148 -32 27 49 -9 129 -35 79 -96 118 -73 -36 119 31 -67 0
